11
2147483647 87 17 33 3 88 58 90 16 1 76 
87 2147483647 65 98 100 90 91 37 82 69 98 
17 65 2147483647 76 48 100 55 27 21 56 29 
33 98 76 2147483647 66 98 98 75 73 2 19 
3 100 48 66 2147483647 22 34 14 27 85 100 
88 90 100 98 22 2147483647 25 64 19 68 68 
58 91 55 98 34 25 2147483647 9 68 67 93 
90 37 27 75 14 64 9 2147483647 82 36 74 
16 82 21 73 27 19 68 82 2147483647 74 90 
1 69 56 2 85 68 67 36 74 2147483647 89 
76 98 29 19 100 68 93 74 90 89 2147483647 
